; benchmark generated from python API
(set-info :status unknown)
(declare-fun x_days () Int)
(assert
 (>= x_days (- 36525)))
(assert
 (<= x_days 36523))
(assert
 (>= x_days 8371))
(assert
 (let ((?x631 (+ x_days 730179)))
(let ((?x1032 (mod ?x631 146097)))
(let ((?x528 (div ?x1032 36524)))
(let ((?x530 (ite (<= 4 ?x528) 3 ?x528)))
(let ((?x1128 (- ?x1032 (* ?x530 36524))))
(let ((?x776 (mod ?x1128 1461)))
(let ((?x893 (div ?x776 365)))
(let ((?x853 (ite (<= 4 ?x893) 3 ?x893)))
(let ((?x877 (+ (+ (* (div ?x631 146097) 400) (* ?x530 100)) (* (div ?x1128 1461) 4))))
(let ((?x672 (+ (+ ?x877 ?x853) 1)))
(let (($x660 (or (and (= (mod ?x672 4) 0) (and (distinct (mod ?x672 100) 0) true)) (= (mod ?x672 400) 0))))
(let ((?x1058 (- ?x776 (* ?x853 365))))
(let ((?x829 (ite $x660 31 31)))
(let (($x779 (>= ?x1058 ?x829)))
(let ((?x815 (ite $x779 (+ (- ?x1058 ?x829) 1) (+ (- ?x1058 (ite $x660 0 0)) 1))))
(let ((?x3702 (ite $x660 60 59)))
(let (($x460 (>= ?x1058 ?x3702)))
(let ((?x885 (ite $x660 91 90)))
(let (($x521 (>= ?x1058 ?x885)))
(let ((?x965 (ite $x521 (+ (- ?x1058 ?x885) 1) (ite $x460 (+ (- ?x1058 ?x3702) 1) ?x815))))
(let ((?x545 (ite $x660 121 120)))
(let (($x791 (>= ?x1058 ?x545)))
(let ((?x1175 (ite $x660 152 151)))
(let (($x1127 (>= ?x1058 ?x1175)))
(let ((?x916 (ite $x1127 (+ (- ?x1058 ?x1175) 1) (ite $x791 (+ (- ?x1058 ?x545) 1) ?x965))))
(let ((?x1183 (ite $x660 182 181)))
(let (($x825 (>= ?x1058 ?x1183)))
(let ((?x1139 (ite $x660 213 212)))
(let (($x1028 (>= ?x1058 ?x1139)))
(let ((?x621 (ite $x1028 (+ (- ?x1058 ?x1139) 1) (ite $x825 (+ (- ?x1058 ?x1183) 1) ?x916))))
(let ((?x2460 (ite $x660 244 243)))
(let (($x548 (>= ?x1058 ?x2460)))
(let ((?x792 (ite $x660 274 273)))
(let (($x3756 (>= ?x1058 ?x792)))
(let ((?x478 (ite $x3756 (+ (- ?x1058 ?x792) 1) (ite $x548 (+ (- ?x1058 ?x2460) 1) ?x621))))
(let ((?x839 (ite $x660 305 304)))
(let (($x3469 (>= ?x1058 ?x839)))
(let ((?x3212 (ite $x660 335 334)))
(let (($x844 (>= ?x1058 ?x3212)))
(let ((?x936 (ite $x844 (+ (- ?x1058 ?x3212) 1) (ite $x3469 (+ (- ?x1058 ?x839) 1) ?x478))))
(let ((?x970 (ite $x791 5 (ite $x521 4 (ite $x460 3 (ite $x779 2 1))))))
(let ((?x895 (ite $x548 9 (ite $x1028 8 (ite $x825 7 (ite $x1127 6 ?x970))))))
(let ((?x834 (+ (ite $x844 12 (ite $x3469 11 (ite $x3756 10 ?x895))) (+ (* 0 12) 1))))
(let ((?x3451 (- ?x834 1)))
(let ((?x1135 (+ (mod ?x3451 12) 1)))
(let ((?x1083 (ite (or (= ?x1135 4) (= ?x1135 6) (= ?x1135 9) (= ?x1135 11)) 30 31)))
(let (($x898 (and (= (mod (+ ?x672 (+ 0 (div ?x3451 12))) 4) 0) (and (distinct (mod (+ ?x672 (+ 0 (div ?x3451 12))) 100) 0) true))))
(let (($x766 (or $x898 (= (mod (+ ?x672 (+ 0 (div ?x3451 12))) 400) 0))))
(let ((?x624 (ite (= ?x1135 2) (ite $x766 29 28) ?x1083)))
(let ((?x480 (ite (> 1 ?x936) 1 (ite (> ?x936 ?x624) ?x624 ?x936))))
(let ((?x514 (ite (> 1 ?x480) 1 (ite (> ?x480 ?x624) ?x624 ?x480))))
(let ((?x864 (ite (= 2 ?x1135) (ite $x766 31 31) (ite (= 1 ?x1135) (ite $x766 0 0) 0))))
(let ((?x746 (ite (= 4 ?x1135) (ite $x766 91 90) (ite (= 3 ?x1135) (ite $x766 60 59) ?x864))))
(let ((?x862 (ite (= 6 ?x1135) (ite $x766 152 151) (ite (= 5 ?x1135) (ite $x766 121 120) ?x746))))
(let ((?x850 (ite (= 8 ?x1135) (ite $x766 213 212) (ite (= 7 ?x1135) (ite $x766 182 181) ?x862))))
(let ((?x927 (ite (= 10 ?x1135) (ite $x766 274 273) (ite (= 9 ?x1135) (ite $x766 244 243) ?x850))))
(let ((?x1143 (ite (= 12 ?x1135) (ite $x766 335 334) (ite (= 11 ?x1135) (ite $x766 305 304) ?x927))))
(let ((?x842 (+ (* 365 (- (+ ?x672 (+ 0 (div ?x3451 12))) 1)) (div (- (+ ?x672 (+ 0 (div ?x3451 12))) 1) 4))))
(let ((?x720 (+ (- ?x842 (div (- (+ ?x672 (+ 0 (div ?x3451 12))) 1) 100)) (div (- (+ ?x672 (+ 0 (div ?x3451 12))) 1) 400))))
(let ((?x3507 (+ (+ (- (+ (+ ?x720 ?x1143) (- ?x514 1)) 730179) 0) 730179)))
(let ((?x3632 (mod ?x3507 146097)))
(let ((?x755 (div ?x3632 36524)))
(let ((?x941 (ite (<= 4 ?x755) 3 ?x755)))
(let ((?x929 (- ?x3632 (* ?x941 36524))))
(let ((?x3506 (mod ?x929 1461)))
(let ((?x3151 (div ?x3506 365)))
(let ((?x3230 (ite (<= 4 ?x3151) 3 ?x3151)))
(let ((?x901 (+ (+ (* (div ?x3507 146097) 400) (* ?x941 100)) (* (div ?x929 1461) 4))))
(let ((?x854 (+ (+ ?x901 ?x3230) 1)))
(let (($x899 (or (and (= (mod ?x854 4) 0) (and (distinct (mod ?x854 100) 0) true)) (= (mod ?x854 400) 0))))
(let ((?x756 (- ?x3506 (* ?x3230 365))))
(let ((?x802 (ite $x899 31 31)))
(let (($x1819 (>= ?x756 ?x802)))
(let ((?x1046 (ite $x1819 (+ (- ?x756 ?x802) 1) (+ (- ?x756 (ite $x899 0 0)) 1))))
(let ((?x581 (ite $x899 60 59)))
(let (($x3719 (>= ?x756 ?x581)))
(let ((?x3026 (ite $x899 91 90)))
(let (($x3159 (>= ?x756 ?x3026)))
(let ((?x2854 (ite $x3159 (+ (- ?x756 ?x3026) 1) (ite $x3719 (+ (- ?x756 ?x581) 1) ?x1046))))
(let ((?x2645 (ite $x899 121 120)))
(let (($x3150 (>= ?x756 ?x2645)))
(let ((?x1037 (ite $x899 152 151)))
(let (($x3190 (>= ?x756 ?x1037)))
(let ((?x597 (ite $x3190 (+ (- ?x756 ?x1037) 1) (ite $x3150 (+ (- ?x756 ?x2645) 1) ?x2854))))
(let ((?x858 (ite $x899 182 181)))
(let (($x413 (>= ?x756 ?x858)))
(let ((?x3030 (ite $x899 213 212)))
(let (($x587 (>= ?x756 ?x3030)))
(let ((?x806 (ite $x587 (+ (- ?x756 ?x3030) 1) (ite $x413 (+ (- ?x756 ?x858) 1) ?x597))))
(let ((?x603 (ite $x899 244 243)))
(let (($x1728 (>= ?x756 ?x603)))
(let ((?x1048 (ite $x899 274 273)))
(let (($x1136 (>= ?x756 ?x1048)))
(let ((?x501 (ite $x1136 (+ (- ?x756 ?x1048) 1) (ite $x1728 (+ (- ?x756 ?x603) 1) ?x806))))
(let ((?x2422 (ite $x899 305 304)))
(let (($x2626 (>= ?x756 ?x2422)))
(let ((?x531 (ite $x899 335 334)))
(let (($x3043 (>= ?x756 ?x531)))
(let ((?x1460 (ite $x3043 (+ (- ?x756 ?x531) 1) (ite $x2626 (+ (- ?x756 ?x2422) 1) ?x501))))
(let (($x3452 (= 0 0)))
(let (($x1725 (= (mod (ite $x3452 (+ ?x672 (+ 0 (div ?x3451 12))) ?x854) 400) 0)))
(let (($x692 (and (distinct (mod (ite $x3452 (+ ?x672 (+ 0 (div ?x3451 12))) ?x854) 100) 0) true)))
(let (($x715 (= (mod (ite $x3452 (+ ?x672 (+ 0 (div ?x3451 12))) ?x854) 4) 0)))
(let (($x757 (or (and $x715 $x692) $x1725)))
(let ((?x1103 (ite $x3150 5 (ite $x3159 4 (ite $x3719 3 (ite $x1819 2 1))))))
(let ((?x582 (ite $x1728 9 (ite $x587 8 (ite $x413 7 (ite $x3190 6 ?x1103))))))
(let ((?x623 (ite $x3452 ?x1135 (ite $x3043 12 (ite $x2626 11 (ite $x1136 10 ?x582))))))
(let ((?x2666 (ite (= 2 ?x623) (ite $x757 31 31) (ite (= 1 ?x623) (ite $x757 0 0) 0))))
(let ((?x697 (ite (= 4 ?x623) (ite $x757 91 90) (ite (= 3 ?x623) (ite $x757 60 59) ?x2666))))
(let ((?x2982 (ite (= 6 ?x623) (ite $x757 152 151) (ite (= 5 ?x623) (ite $x757 121 120) ?x697))))
(let ((?x3259 (ite (= 8 ?x623) (ite $x757 213 212) (ite (= 7 ?x623) (ite $x757 182 181) ?x2982))))
(let ((?x1147 (ite (= 10 ?x623) (ite $x757 274 273) (ite (= 9 ?x623) (ite $x757 244 243) ?x3259))))
(let ((?x2097 (ite (= 12 ?x623) (ite $x757 335 334) (ite (= 11 ?x623) (ite $x757 305 304) ?x1147))))
(let ((?x682 (+ ?x672 (+ 0 (div ?x3451 12)))))
(let ((?x723 (ite $x3452 ?x682 ?x854)))
(let ((?x2048 (- ?x723 1)))
(let ((?x492 (+ (- (+ (* 365 ?x2048) (div ?x2048 4)) (div ?x2048 100)) (div ?x2048 400))))
(<= (- (+ (+ ?x492 ?x2097) (- (ite $x3452 ?x514 ?x1460) 1)) 730179) 8400)))))))))))))))))))))))))))))))))))))))))))))))))))))))))))))))))))))))))))))))))))))))))))))))))))))))))))))))))))))))
(check-sat)
